nK = 1575;
nT = 8;
nI = 21;
L = 29;
TT = 357;
np = 1;
nc = 3;
b = [68, 24, 40, 28, 53, 59, 66, 61, 22, 34, 22, 50, 24, 69, 41, 27, 65, 33, 23, 50, 20];
d = [147, 113, 65, 42, 95, 145, 109, 135, 88, 99, 117, 150, 95, 111, 112, 130, 148, 145, 109, 139, 99];
m = [1, 1.5, 2.4, 1.4, 1, 1.5, 1.1, 1.6, 1, 2, 1.9, 2.1, 1.2, 1.4, 1.8, 1, 2.4, 2.1, 1, 1.4, 2];
pt = [0.28, 0.33, 0.22, 0.35, 0.34, 0.3, 0.3, 0.28];
st = [11.76, 13.53, 10.56, 15.05, 19.72, 12.6, 15.9, 15.96];
arc = {<1, 0, 1, 1, 0, 0, 0, [1, 1, 1, 1, 1, 1, 1, 1]>, <2, 1, 2, 1, 0, 0, 0, [1, 1, 1, 1, 1, 1, 1, 1]>, <3, 2, 3, 1, 0, 0, 0, [1, 1, 1, 1, 1, 1, 1, 1]>, <4, 3, 4, 1, 0, 0, 0, [1, 1, 1, 1, 1, 1, 1, 1]>, <5, 4, 5, 1, 0, 0, 0, [1, 1, 1, 1, 1, 1, 1, 1]>, <6, 5, 6, 1, 0, 0, 0, [1, 1, 1, 1, 1, 1, 1, 1]>, <7, 6, 7, 1, 0, 0, 0, [1, 1, 1, 1, 1, 1, 1, 1]>, <8, 7, 8, 1, 0, 0, 0, [1, 1, 1, 1, 1, 1, 1, 1]>, <9, 8, 9, 1, 0, 0, 0, [1, 1, 1, 1, 1, 1, 1, 1]>, <10, 9, 10, 1, 0, 0, 0, [1, 1, 1, 1, 1, 1, 1, 1]>, <11, 10, 11, 1, 0, 0, 0, [1, 1, 1, 1, 1, 1, 1, 1]>, <12, 11, 12, 1, 0, 0, 0, [1, 1, 1, 1, 1, 1, 1, 1]>, <13, 12, 13, 1, 0, 0, 0, [1, 1, 1, 1, 1, 1, 1, 1]>, <14, 13, 14, 1, 0, 0, 0, [1, 1, 1, 1, 1, 1, 1, 1]>, <15, 14, 15, 1, 0, 0, 0, [1, 1, 1, 1, 1, 1, 1, 1]>, <16, 15, 16, 1, 0, 0, 0, [1, 1, 1, 1, 1, 1, 1, 1]>, <17, 16, 17, 1, 0, 0, 0, [1, 1, 1, 1, 1, 1, 1, 1]>, <18, 17, 18, 1, 0, 0, 0, [1, 1, 1, 1, 1, 1, 1, 1]>, <19, 18, 19, 1, 0, 0, 0, [1, 1, 1, 1, 1, 1, 1, 1]>, <20, 19, 20, 1, 0, 0, 0, [1, 1, 1, 1, 1, 1, 1, 1]>, <21, 20, 21, 1, 0, 0, 0, [1, 1, 1, 1, 1, 1, 1, 1]>, <22, 21, 22, 1, 0, 0, 0, [1, 1, 1, 1, 1, 1, 1, 1]>, <23, 22, 23, 1, 0, 0, 0, [1, 1, 1, 1, 1, 1, 1, 1]>, <24, 23, 24, 1, 0, 0, 0, [1, 1, 1, 1, 1, 1, 1, 1]>, <25, 24, 25, 1, 0, 0, 0, [1, 1, 1, 1, 1, 1, 1, 1]>, <26, 25, 26, 1, 0, 0, 0, [1, 1, 1, 1, 1, 1, 1, 1]>, <27, 26, 27, 1, 0, 0, 0, [1, 1, 1, 1, 1, 1, 1, 1]>, <28, 27, 28, 1, 0, 0, 0, [1, 1, 1, 1, 1, 1, 1, 1]>, <29, 28, 29, 1, 0, 0, 0, [1, 1, 1, 1, 1, 1, 1, 1]>, <30, 3, 12, 9, 1, 0, 1, [0, 0, 0, 0, 1, 1, 1, 1]>, <31, 4, 13, 9, 1, 0, 1, [0, 0, 0, 0, 1, 1, 1, 1]>, <32, 5, 14, 9, 1, 0, 1, [0, 0, 0, 0, 1, 1, 1, 1]>, <33, 11, 20, 9, 1, 0, 1, [0, 0, 0, 0, 1, 1, 1, 1]>, <34, 12, 21, 9, 1, 0, 1, [0, 0, 0, 0, 1, 1, 1, 1]>, <35, 15, 24, 9, 1, 0, 1, [0, 0, 0, 0, 1, 1, 1, 1]>, <36, 16, 25, 9, 1, 0, 1, [0, 0, 0, 0, 1, 1, 1, 1]>, <37, 17, 26, 9, 1, 0, 1, [0, 0, 0, 0, 1, 1, 1, 1]>, <38, 18, 27, 9, 1, 0, 1, [0, 0, 0, 0, 1, 1, 1, 1]>, <39, 19, 28, 9, 1, 0, 1, [0, 0, 0, 0, 1, 1, 1, 1]>, <40, 20, 29, 9, 1, 0, 1, [0, 0, 0, 0, 1, 1, 1, 1]>, <41, 3, 12, 9, 2, 0, 1, [1, 1, 1, 1, 0, 0, 0, 0]>, <42, 4, 13, 9, 2, 0, 1, [1, 1, 1, 1, 0, 0, 0, 0]>, <43, 5, 14, 9, 2, 0, 1, [1, 1, 1, 1, 0, 0, 0, 0]>, <44, 11, 20, 9, 2, 0, 1, [1, 1, 1, 1, 0, 0, 0, 0]>, <45, 12, 21, 9, 2, 0, 1, [1, 1, 1, 1, 0, 0, 0, 0]>, <46, 15, 24, 9, 2, 0, 1, [1, 1, 1, 1, 0, 0, 0, 0]>, <47, 16, 25, 9, 2, 0, 1, [1, 1, 1, 1, 0, 0, 0, 0]>, <48, 17, 26, 9, 2, 0, 1, [1, 1, 1, 1, 0, 0, 0, 0]>, <49, 18, 27, 9, 2, 0, 1, [1, 1, 1, 1, 0, 0, 0, 0]>, <50, 19, 28, 9, 2, 0, 1, [1, 1, 1, 1, 0, 0, 0, 0]>, <51, 20, 29, 9, 2, 0, 1, [1, 1, 1, 1, 0, 0, 0, 0]>, <52, 4, 11, 7, 3, 0, 1, [0, 1, 1, 1, 1, 0, 0, 0]>, <53, 5, 12, 7, 3, 0, 1, [0, 1, 1, 1, 1, 0, 0, 0]>, <54, 11, 18, 7, 3, 0, 1, [0, 1, 1, 1, 1, 0, 0, 0]>, <55, 12, 19, 7, 3, 0, 1, [0, 1, 1, 1, 1, 0, 0, 0]>, <56, 17, 24, 7, 3, 0, 1, [0, 1, 1, 1, 1, 0, 0, 0]>, <57, 18, 25, 7, 3, 0, 1, [0, 1, 1, 1, 1, 0, 0, 0]>, <58, 19, 26, 7, 3, 0, 1, [0, 1, 1, 1, 1, 0, 0, 0]>, <59, 20, 27, 7, 3, 0, 1, [0, 1, 1, 1, 1, 0, 0, 0]>, <60, 4, 12, 8, 4, 0, 1, [1, 1, 1, 0, 0, 0, 0, 1]>, <61, 5, 13, 8, 4, 0, 1, [1, 1, 1, 0, 0, 0, 0, 1]>, <62, 11, 19, 8, 4, 0, 1, [1, 1, 1, 0, 0, 0, 0, 1]>, <63, 12, 20, 8, 4, 0, 1, [1, 1, 1, 0, 0, 0, 0, 1]>, <64, 16, 24, 8, 4, 0, 1, [1, 1, 1, 0, 0, 0, 0, 1]>, <65, 17, 25, 8, 4, 0, 1, [1, 1, 1, 0, 0, 0, 0, 1]>, <66, 18, 26, 8, 4, 0, 1, [1, 1, 1, 0, 0, 0, 0, 1]>, <67, 19, 27, 8, 4, 0, 1, [1, 1, 1, 0, 0, 0, 0, 1]>, <68, 20, 28, 8, 4, 0, 1, [1, 1, 1, 0, 0, 0, 0, 1]>, <69, 0, 12, 12, 5, 0, 0, [1, 1, 1, 1, 0, 0, 0, 0]>, <70, 1, 13, 12, 5, 0, 0, [1, 1, 1, 1, 0, 0, 0, 0]>, <71, 2, 14, 12, 5, 0, 0, [1, 1, 1, 1, 0, 0, 0, 0]>, <72, 3, 15, 12, 5, 0, 0, [1, 1, 1, 1, 0, 0, 0, 0]>, <73, 4, 16, 12, 5, 0, 0, [1, 1, 1, 1, 0, 0, 0, 0]>, <74, 5, 17, 12, 5, 0, 0, [1, 1, 1, 1, 0, 0, 0, 0]>, <75, 8, 20, 12, 5, 0, 0, [1, 1, 1, 1, 0, 0, 0, 0]>, <76, 9, 21, 12, 5, 0, 0, [1, 1, 1, 1, 0, 0, 0, 0]>, <77, 10, 22, 12, 5, 0, 0, [1, 1, 1, 1, 0, 0, 0, 0]>, <78, 11, 23, 12, 5, 0, 0, [1, 1, 1, 1, 0, 0, 0, 0]>, <79, 12, 24, 12, 5, 0, 0, [1, 1, 1, 1, 0, 0, 0, 0]>, <80, 13, 25, 12, 5, 0, 0, [1, 1, 1, 1, 0, 0, 0, 0]>, <81, 14, 26, 12, 5, 0, 0, [1, 1, 1, 1, 0, 0, 0, 0]>, <82, 15, 27, 12, 5, 0, 0, [1, 1, 1, 1, 0, 0, 0, 0]>, <83, 16, 28, 12, 5, 0, 0, [1, 1, 1, 1, 0, 0, 0, 0]>, <84, 17, 29, 12, 5, 0, 0, [1, 1, 1, 1, 0, 0, 0, 0]>, <85, 2, 12, 10, 6, 0, 1, [0, 0, 1, 1, 1, 1, 0, 0]>, <86, 3, 13, 10, 6, 0, 1, [0, 0, 1, 1, 1, 1, 0, 0]>, <87, 4, 14, 10, 6, 0, 1, [0, 0, 1, 1, 1, 1, 0, 0]>, <88, 5, 15, 10, 6, 0, 1, [0, 0, 1, 1, 1, 1, 0, 0]>, <89, 10, 20, 10, 6, 0, 1, [0, 0, 1, 1, 1, 1, 0, 0]>, <90, 11, 21, 10, 6, 0, 1, [0, 0, 1, 1, 1, 1, 0, 0]>, <91, 12, 22, 10, 6, 0, 1, [0, 0, 1, 1, 1, 1, 0, 0]>, <92, 14, 24, 10, 6, 0, 1, [0, 0, 1, 1, 1, 1, 0, 0]>, <93, 15, 25, 10, 6, 0, 1, [0, 0, 1, 1, 1, 1, 0, 0]>, <94, 16, 26, 10, 6, 0, 1, [0, 0, 1, 1, 1, 1, 0, 0]>, <95, 17, 27, 10, 6, 0, 1, [0, 0, 1, 1, 1, 1, 0, 0]>, <96, 18, 28, 10, 6, 0, 1, [0, 0, 1, 1, 1, 1, 0, 0]>, <97, 19, 29, 10, 6, 0, 1, [0, 0, 1, 1, 1, 1, 0, 0]>, <98, 2, 12, 10, 7, 0, 1, [0, 0, 0, 1, 1, 1, 1, 0]>, <99, 3, 13, 10, 7, 0, 1, [0, 0, 0, 1, 1, 1, 1, 0]>, <100, 4, 14, 10, 7, 0, 1, [0, 0, 0, 1, 1, 1, 1, 0]>, <101, 5, 15, 10, 7, 0, 1, [0, 0, 0, 1, 1, 1, 1, 0]>, <102, 10, 20, 10, 7, 0, 1, [0, 0, 0, 1, 1, 1, 1, 0]>, <103, 11, 21, 10, 7, 0, 1, [0, 0, 0, 1, 1, 1, 1, 0]>, <104, 12, 22, 10, 7, 0, 1, [0, 0, 0, 1, 1, 1, 1, 0]>, <105, 14, 24, 10, 7, 0, 1, [0, 0, 0, 1, 1, 1, 1, 0]>, <106, 15, 25, 10, 7, 0, 1, [0, 0, 0, 1, 1, 1, 1, 0]>, <107, 16, 26, 10, 7, 0, 1, [0, 0, 0, 1, 1, 1, 1, 0]>, <108, 17, 27, 10, 7, 0, 1, [0, 0, 0, 1, 1, 1, 1, 0]>, <109, 18, 28, 10, 7, 0, 1, [0, 0, 0, 1, 1, 1, 1, 0]>, <110, 19, 29, 10, 7, 0, 1, [0, 0, 0, 1, 1, 1, 1, 0]>, <111, 1, 12, 11, 8, 0, 0, [1, 1, 1, 0, 0, 0, 0, 1]>, <112, 2, 13, 11, 8, 0, 0, [1, 1, 1, 0, 0, 0, 0, 1]>, <113, 3, 14, 11, 8, 0, 0, [1, 1, 1, 0, 0, 0, 0, 1]>, <114, 4, 15, 11, 8, 0, 0, [1, 1, 1, 0, 0, 0, 0, 1]>, <115, 5, 16, 11, 8, 0, 0, [1, 1, 1, 0, 0, 0, 0, 1]>, <116, 9, 20, 11, 8, 0, 0, [1, 1, 1, 0, 0, 0, 0, 1]>, <117, 10, 21, 11, 8, 0, 0, [1, 1, 1, 0, 0, 0, 0, 1]>, <118, 11, 22, 11, 8, 0, 0, [1, 1, 1, 0, 0, 0, 0, 1]>, <119, 12, 23, 11, 8, 0, 0, [1, 1, 1, 0, 0, 0, 0, 1]>, <120, 13, 24, 11, 8, 0, 0, [1, 1, 1, 0, 0, 0, 0, 1]>, <121, 14, 25, 11, 8, 0, 0, [1, 1, 1, 0, 0, 0, 0, 1]>, <122, 15, 26, 11, 8, 0, 0, [1, 1, 1, 0, 0, 0, 0, 1]>, <123, 16, 27, 11, 8, 0, 0, [1, 1, 1, 0, 0, 0, 0, 1]>, <124, 17, 28, 11, 8, 0, 0, [1, 1, 1, 0, 0, 0, 0, 1]>, <125, 18, 29, 11, 8, 0, 0, [1, 1, 1, 0, 0, 0, 0, 1]>, <126, 2, 12, 10, 9, 0, 1, [0, 0, 1, 1, 1, 1, 0, 0]>, <127, 3, 13, 10, 9, 0, 1, [0, 0, 1, 1, 1, 1, 0, 0]>, <128, 4, 14, 10, 9, 0, 1, [0, 0, 1, 1, 1, 1, 0, 0]>, <129, 5, 15, 10, 9, 0, 1, [0, 0, 1, 1, 1, 1, 0, 0]>, <130, 10, 20, 10, 9, 0, 1, [0, 0, 1, 1, 1, 1, 0, 0]>, <131, 11, 21, 10, 9, 0, 1, [0, 0, 1, 1, 1, 1, 0, 0]>, <132, 12, 22, 10, 9, 0, 1, [0, 0, 1, 1, 1, 1, 0, 0]>, <133, 14, 24, 10, 9, 0, 1, [0, 0, 1, 1, 1, 1, 0, 0]>, <134, 15, 25, 10, 9, 0, 1, [0, 0, 1, 1, 1, 1, 0, 0]>, <135, 16, 26, 10, 9, 0, 1, [0, 0, 1, 1, 1, 1, 0, 0]>, <136, 17, 27, 10, 9, 0, 1, [0, 0, 1, 1, 1, 1, 0, 0]>, <137, 18, 28, 10, 9, 0, 1, [0, 0, 1, 1, 1, 1, 0, 0]>, <138, 19, 29, 10, 9, 0, 1, [0, 0, 1, 1, 1, 1, 0, 0]>, <139, 4, 12, 8, 10, 0, 0, [0, 0, 0, 1, 1, 1, 1, 0]>, <140, 5, 13, 8, 10, 0, 0, [0, 0, 0, 1, 1, 1, 1, 0]>, <141, 11, 19, 8, 10, 0, 0, [0, 0, 0, 1, 1, 1, 1, 0]>, <142, 12, 20, 8, 10, 0, 0, [0, 0, 0, 1, 1, 1, 1, 0]>, <143, 16, 24, 8, 10, 0, 0, [0, 0, 0, 1, 1, 1, 1, 0]>, <144, 17, 25, 8, 10, 0, 0, [0, 0, 0, 1, 1, 1, 1, 0]>, <145, 18, 26, 8, 10, 0, 0, [0, 0, 0, 1, 1, 1, 1, 0]>, <146, 19, 27, 8, 10, 0, 0, [0, 0, 0, 1, 1, 1, 1, 0]>, <147, 20, 28, 8, 10, 0, 0, [0, 0, 0, 1, 1, 1, 1, 0]>, <148, 0, 12, 12, 11, 0, 0, [0, 0, 1, 1, 1, 1, 0, 0]>, <149, 1, 13, 12, 11, 0, 0, [0, 0, 1, 1, 1, 1, 0, 0]>, <150, 2, 14, 12, 11, 0, 0, [0, 0, 1, 1, 1, 1, 0, 0]>, <151, 3, 15, 12, 11, 0, 0, [0, 0, 1, 1, 1, 1, 0, 0]>, <152, 4, 16, 12, 11, 0, 0, [0, 0, 1, 1, 1, 1, 0, 0]>, <153, 5, 17, 12, 11, 0, 0, [0, 0, 1, 1, 1, 1, 0, 0]>, <154, 8, 20, 12, 11, 0, 0, [0, 0, 1, 1, 1, 1, 0, 0]>, <155, 9, 21, 12, 11, 0, 0, [0, 0, 1, 1, 1, 1, 0, 0]>, <156, 10, 22, 12, 11, 0, 0, [0, 0, 1, 1, 1, 1, 0, 0]>, <157, 11, 23, 12, 11, 0, 0, [0, 0, 1, 1, 1, 1, 0, 0]>, <158, 12, 24, 12, 11, 0, 0, [0, 0, 1, 1, 1, 1, 0, 0]>, <159, 13, 25, 12, 11, 0, 0, [0, 0, 1, 1, 1, 1, 0, 0]>, <160, 14, 26, 12, 11, 0, 0, [0, 0, 1, 1, 1, 1, 0, 0]>, <161, 15, 27, 12, 11, 0, 0, [0, 0, 1, 1, 1, 1, 0, 0]>, <162, 16, 28, 12, 11, 0, 0, [0, 0, 1, 1, 1, 1, 0, 0]>, <163, 17, 29, 12, 11, 0, 0, [0, 0, 1, 1, 1, 1, 0, 0]>, <164, 3, 12, 9, 12, 0, 0, [0, 1, 1, 1, 1, 0, 0, 0]>, <165, 4, 13, 9, 12, 0, 0, [0, 1, 1, 1, 1, 0, 0, 0]>, <166, 5, 14, 9, 12, 0, 0, [0, 1, 1, 1, 1, 0, 0, 0]>, <167, 11, 20, 9, 12, 0, 0, [0, 1, 1, 1, 1, 0, 0, 0]>, <168, 12, 21, 9, 12, 0, 0, [0, 1, 1, 1, 1, 0, 0, 0]>, <169, 15, 24, 9, 12, 0, 0, [0, 1, 1, 1, 1, 0, 0, 0]>, <170, 16, 25, 9, 12, 0, 0, [0, 1, 1, 1, 1, 0, 0, 0]>, <171, 17, 26, 9, 12, 0, 0, [0, 1, 1, 1, 1, 0, 0, 0]>, <172, 18, 27, 9, 12, 0, 0, [0, 1, 1, 1, 1, 0, 0, 0]>, <173, 19, 28, 9, 12, 0, 0, [0, 1, 1, 1, 1, 0, 0, 0]>, <174, 20, 29, 9, 12, 0, 0, [0, 1, 1, 1, 1, 0, 0, 0]>, <175, 4, 12, 8, 13, 0, 1, [1, 0, 0, 0, 0, 1, 1, 1]>, <176, 5, 13, 8, 13, 0, 1, [1, 0, 0, 0, 0, 1, 1, 1]>, <177, 11, 19, 8, 13, 0, 1, [1, 0, 0, 0, 0, 1, 1, 1]>, <178, 12, 20, 8, 13, 0, 1, [1, 0, 0, 0, 0, 1, 1, 1]>, <179, 16, 24, 8, 13, 0, 1, [1, 0, 0, 0, 0, 1, 1, 1]>, <180, 17, 25, 8, 13, 0, 1, [1, 0, 0, 0, 0, 1, 1, 1]>, <181, 18, 26, 8, 13, 0, 1, [1, 0, 0, 0, 0, 1, 1, 1]>, <182, 19, 27, 8, 13, 0, 1, [1, 0, 0, 0, 0, 1, 1, 1]>, <183, 20, 28, 8, 13, 0, 1, [1, 0, 0, 0, 0, 1, 1, 1]>, <184, 1, 12, 11, 14, 0, 0, [1, 1, 1, 1, 0, 0, 0, 0]>, <185, 2, 13, 11, 14, 0, 0, [1, 1, 1, 1, 0, 0, 0, 0]>, <186, 3, 14, 11, 14, 0, 0, [1, 1, 1, 1, 0, 0, 0, 0]>, <187, 4, 15, 11, 14, 0, 0, [1, 1, 1, 1, 0, 0, 0, 0]>, <188, 5, 16, 11, 14, 0, 0, [1, 1, 1, 1, 0, 0, 0, 0]>, <189, 9, 20, 11, 14, 0, 0, [1, 1, 1, 1, 0, 0, 0, 0]>, <190, 10, 21, 11, 14, 0, 0, [1, 1, 1, 1, 0, 0, 0, 0]>, <191, 11, 22, 11, 14, 0, 0, [1, 1, 1, 1, 0, 0, 0, 0]>, <192, 12, 23, 11, 14, 0, 0, [1, 1, 1, 1, 0, 0, 0, 0]>, <193, 13, 24, 11, 14, 0, 0, [1, 1, 1, 1, 0, 0, 0, 0]>, <194, 14, 25, 11, 14, 0, 0, [1, 1, 1, 1, 0, 0, 0, 0]>, <195, 15, 26, 11, 14, 0, 0, [1, 1, 1, 1, 0, 0, 0, 0]>, <196, 16, 27, 11, 14, 0, 0, [1, 1, 1, 1, 0, 0, 0, 0]>, <197, 17, 28, 11, 14, 0, 0, [1, 1, 1, 1, 0, 0, 0, 0]>, <198, 18, 29, 11, 14, 0, 0, [1, 1, 1, 1, 0, 0, 0, 0]>, <199, 1, 12, 11, 15, 0, 0, [0, 0, 0, 1, 1, 1, 1, 0]>, <200, 2, 13, 11, 15, 0, 0, [0, 0, 0, 1, 1, 1, 1, 0]>, <201, 3, 14, 11, 15, 0, 0, [0, 0, 0, 1, 1, 1, 1, 0]>, <202, 4, 15, 11, 15, 0, 0, [0, 0, 0, 1, 1, 1, 1, 0]>, <203, 5, 16, 11, 15, 0, 0, [0, 0, 0, 1, 1, 1, 1, 0]>, <204, 9, 20, 11, 15, 0, 0, [0, 0, 0, 1, 1, 1, 1, 0]>, <205, 10, 21, 11, 15, 0, 0, [0, 0, 0, 1, 1, 1, 1, 0]>, <206, 11, 22, 11, 15, 0, 0, [0, 0, 0, 1, 1, 1, 1, 0]>, <207, 12, 23, 11, 15, 0, 0, [0, 0, 0, 1, 1, 1, 1, 0]>, <208, 13, 24, 11, 15, 0, 0, [0, 0, 0, 1, 1, 1, 1, 0]>, <209, 14, 25, 11, 15, 0, 0, [0, 0, 0, 1, 1, 1, 1, 0]>, <210, 15, 26, 11, 15, 0, 0, [0, 0, 0, 1, 1, 1, 1, 0]>, <211, 16, 27, 11, 15, 0, 0, [0, 0, 0, 1, 1, 1, 1, 0]>, <212, 17, 28, 11, 15, 0, 0, [0, 0, 0, 1, 1, 1, 1, 0]>, <213, 18, 29, 11, 15, 0, 0, [0, 0, 0, 1, 1, 1, 1, 0]>, <214, 4, 11, 7, 16, 0, 0, [1, 1, 1, 1, 0, 0, 0, 0]>, <215, 5, 12, 7, 16, 0, 0, [1, 1, 1, 1, 0, 0, 0, 0]>, <216, 11, 18, 7, 16, 0, 0, [1, 1, 1, 1, 0, 0, 0, 0]>, <217, 12, 19, 7, 16, 0, 0, [1, 1, 1, 1, 0, 0, 0, 0]>, <218, 17, 24, 7, 16, 0, 0, [1, 1, 1, 1, 0, 0, 0, 0]>, <219, 18, 25, 7, 16, 0, 0, [1, 1, 1, 1, 0, 0, 0, 0]>, <220, 19, 26, 7, 16, 0, 0, [1, 1, 1, 1, 0, 0, 0, 0]>, <221, 20, 27, 7, 16, 0, 0, [1, 1, 1, 1, 0, 0, 0, 0]>, <222, 2, 12, 10, 17, 0, 1, [1, 1, 1, 0, 0, 0, 0, 1]>, <223, 3, 13, 10, 17, 0, 1, [1, 1, 1, 0, 0, 0, 0, 1]>, <224, 4, 14, 10, 17, 0, 1, [1, 1, 1, 0, 0, 0, 0, 1]>, <225, 5, 15, 10, 17, 0, 1, [1, 1, 1, 0, 0, 0, 0, 1]>, <226, 10, 20, 10, 17, 0, 1, [1, 1, 1, 0, 0, 0, 0, 1]>, <227, 11, 21, 10, 17, 0, 1, [1, 1, 1, 0, 0, 0, 0, 1]>, <228, 12, 22, 10, 17, 0, 1, [1, 1, 1, 0, 0, 0, 0, 1]>, <229, 14, 24, 10, 17, 0, 1, [1, 1, 1, 0, 0, 0, 0, 1]>, <230, 15, 25, 10, 17, 0, 1, [1, 1, 1, 0, 0, 0, 0, 1]>, <231, 16, 26, 10, 17, 0, 1, [1, 1, 1, 0, 0, 0, 0, 1]>, <232, 17, 27, 10, 17, 0, 1, [1, 1, 1, 0, 0, 0, 0, 1]>, <233, 18, 28, 10, 17, 0, 1, [1, 1, 1, 0, 0, 0, 0, 1]>, <234, 19, 29, 10, 17, 0, 1, [1, 1, 1, 0, 0, 0, 0, 1]>, <235, 2, 12, 10, 18, 0, 0, [1, 0, 0, 0, 0, 1, 1, 1]>, <236, 3, 13, 10, 18, 0, 0, [1, 0, 0, 0, 0, 1, 1, 1]>, <237, 4, 14, 10, 18, 0, 0, [1, 0, 0, 0, 0, 1, 1, 1]>, <238, 5, 15, 10, 18, 0, 0, [1, 0, 0, 0, 0, 1, 1, 1]>, <239, 10, 20, 10, 18, 0, 0, [1, 0, 0, 0, 0, 1, 1, 1]>, <240, 11, 21, 10, 18, 0, 0, [1, 0, 0, 0, 0, 1, 1, 1]>, <241, 12, 22, 10, 18, 0, 0, [1, 0, 0, 0, 0, 1, 1, 1]>, <242, 14, 24, 10, 18, 0, 0, [1, 0, 0, 0, 0, 1, 1, 1]>, <243, 15, 25, 10, 18, 0, 0, [1, 0, 0, 0, 0, 1, 1, 1]>, <244, 16, 26, 10, 18, 0, 0, [1, 0, 0, 0, 0, 1, 1, 1]>, <245, 17, 27, 10, 18, 0, 0, [1, 0, 0, 0, 0, 1, 1, 1]>, <246, 18, 28, 10, 18, 0, 0, [1, 0, 0, 0, 0, 1, 1, 1]>, <247, 19, 29, 10, 18, 0, 0, [1, 0, 0, 0, 0, 1, 1, 1]>, <248, 4, 12, 8, 19, 0, 0, [1, 1, 1, 0, 0, 0, 0, 1]>, <249, 5, 13, 8, 19, 0, 0, [1, 1, 1, 0, 0, 0, 0, 1]>, <250, 11, 19, 8, 19, 0, 0, [1, 1, 1, 0, 0, 0, 0, 1]>, <251, 12, 20, 8, 19, 0, 0, [1, 1, 1, 0, 0, 0, 0, 1]>, <252, 16, 24, 8, 19, 0, 0, [1, 1, 1, 0, 0, 0, 0, 1]>, <253, 17, 25, 8, 19, 0, 0, [1, 1, 1, 0, 0, 0, 0, 1]>, <254, 18, 26, 8, 19, 0, 0, [1, 1, 1, 0, 0, 0, 0, 1]>, <255, 19, 27, 8, 19, 0, 0, [1, 1, 1, 0, 0, 0, 0, 1]>, <256, 20, 28, 8, 19, 0, 0, [1, 1, 1, 0, 0, 0, 0, 1]>, <257, 1, 12, 11, 20, 0, 0, [0, 0, 0, 0, 1, 1, 1, 1]>, <258, 2, 13, 11, 20, 0, 0, [0, 0, 0, 0, 1, 1, 1, 1]>, <259, 3, 14, 11, 20, 0, 0, [0, 0, 0, 0, 1, 1, 1, 1]>, <260, 4, 15, 11, 20, 0, 0, [0, 0, 0, 0, 1, 1, 1, 1]>, <261, 5, 16, 11, 20, 0, 0, [0, 0, 0, 0, 1, 1, 1, 1]>, <262, 9, 20, 11, 20, 0, 0, [0, 0, 0, 0, 1, 1, 1, 1]>, <263, 10, 21, 11, 20, 0, 0, [0, 0, 0, 0, 1, 1, 1, 1]>, <264, 11, 22, 11, 20, 0, 0, [0, 0, 0, 0, 1, 1, 1, 1]>, <265, 12, 23, 11, 20, 0, 0, [0, 0, 0, 0, 1, 1, 1, 1]>, <266, 13, 24, 11, 20, 0, 0, [0, 0, 0, 0, 1, 1, 1, 1]>, <267, 14, 25, 11, 20, 0, 0, [0, 0, 0, 0, 1, 1, 1, 1]>, <268, 15, 26, 11, 20, 0, 0, [0, 0, 0, 0, 1, 1, 1, 1]>, <269, 16, 27, 11, 20, 0, 0, [0, 0, 0, 0, 1, 1, 1, 1]>, <270, 17, 28, 11, 20, 0, 0, [0, 0, 0, 0, 1, 1, 1, 1]>, <271, 18, 29, 11, 20, 0, 0, [0, 0, 0, 0, 1, 1, 1, 1]>, <272, 3, 12, 9, 21, 0, 1, [1, 0, 0, 0, 0, 1, 1, 1]>, <273, 4, 13, 9, 21, 0, 1, [1, 0, 0, 0, 0, 1, 1, 1]>, <274, 5, 14, 9, 21, 0, 1, [1, 0, 0, 0, 0, 1, 1, 1]>, <275, 11, 20, 9, 21, 0, 1, [1, 0, 0, 0, 0, 1, 1, 1]>, <276, 12, 21, 9, 21, 0, 1, [1, 0, 0, 0, 0, 1, 1, 1]>, <277, 15, 24, 9, 21, 0, 1, [1, 0, 0, 0, 0, 1, 1, 1]>, <278, 16, 25, 9, 21, 0, 1, [1, 0, 0, 0, 0, 1, 1, 1]>, <279, 17, 26, 9, 21, 0, 1, [1, 0, 0, 0, 0, 1, 1, 1]>, <280, 18, 27, 9, 21, 0, 1, [1, 0, 0, 0, 0, 1, 1, 1]>, <281, 19, 28, 9, 21, 0, 1, [1, 0, 0, 0, 0, 1, 1, 1]>, <282, 20, 29, 9, 21, 0, 1, [1, 0, 0, 0, 0, 1, 1, 1]>};
